&input
    fildyn='dyn'
    zasr='crystal'
    flfrc='fc.out'
/
